p cnf 964 2475
51 -2 -1 0
-51 2 0
-51 1 0
52 -51 -697 0
-52 51 0
-52 697 0
53 -5 -4 0
-53 5 0
-53 4 0
54 -53 -698 0
-54 53 0
-54 698 0
55 -699 -700 0
-55 699 0
-55 700 0
56 -7 -1 0
-56 7 0
-56 1 0
57 -56 -701 0
-57 56 0
-57 701 0
58 -702 -55 0
-58 702 0
-58 55 0
59 -10 -703 0
-59 10 0
-59 703 0
60 -59 -11 0
-60 59 0
-60 11 0
61 -704 -58 0
-61 704 0
-61 58 0
62 -705 -706 0
-62 705 0
-62 706 0
63 -62 -13 0
-63 62 0
-63 13 0
64 -707 -61 0
-64 707 0
-64 61 0
65 -708 -709 0
-65 708 0
-65 709 0
66 -65 -16 0
-66 65 0
-66 16 0
67 -710 -64 0
-67 710 0
-67 64 0
68 -711 -712 0
-68 711 0
-68 712 0
69 -68 -713 0
-69 68 0
-69 713 0
70 -714 -67 0
-70 714 0
-70 67 0
71 -20 -1 0
-71 20 0
-71 1 0
72 -71 -2 0
-72 71 0
-72 2 0
73 -715 -70 0
-73 715 0
-73 70 0
74 -22 -21 0
-74 22 0
-74 21 0
75 -74 -716 0
-75 74 0
-75 716 0
76 -717 -73 0
-76 717 0
-76 73 0
77 -718 -5 0
-77 718 0
-77 5 0
78 -77 -6 0
-78 77 0
-78 6 0
79 -719 -76 0
-79 719 0
-79 76 0
80 -720 -8 0
-80 720 0
-80 8 0
81 -80 -18 0
-81 80 0
-81 18 0
82 -721 -79 0
-82 721 0
-82 79 0
83 -722 -723 0
-83 722 0
-83 723 0
84 -83 -724 0
-84 83 0
-84 724 0
85 -725 -82 0
-85 725 0
-85 82 0
86 -726 -1 0
-86 726 0
-86 1 0
87 -86 -29 0
-87 86 0
-87 29 0
88 -727 -85 0
-88 727 0
-88 85 0
89 -12 -9 0
-89 12 0
-89 9 0
90 -89 -18 0
-90 89 0
-90 18 0
91 -728 -88 0
-91 728 0
-91 88 0
92 -729 -726 0
-92 729 0
-92 726 0
93 -92 -730 0
-93 92 0
-93 730 0
94 -731 -91 0
-94 731 0
-94 91 0
95 -31 -718 0
-95 31 0
-95 718 0
96 -95 -13 0
-96 95 0
-96 13 0
97 -732 -94 0
-97 732 0
-97 94 0
98 -32 -21 0
-98 32 0
-98 21 0
99 -98 -33 0
-99 98 0
-99 33 0
100 -733 -97 0
-100 733 0
-100 97 0
101 -701 -734 0
-101 701 0
-101 734 0
102 -101 -29 0
-102 101 0
-102 29 0
103 -735 -100 0
-103 735 0
-103 100 0
104 -736 -703 0
-104 736 0
-104 703 0
105 -104 -18 0
-105 104 0
-105 18 0
106 -737 -103 0
-106 737 0
-106 103 0
107 -35 -32 0
-107 35 0
-107 32 0
108 -107 -724 0
-108 107 0
-108 724 0
109 -738 -106 0
-109 738 0
-109 106 0
110 -739 -1 0
-110 739 0
-110 1 0
111 -110 -34 0
-111 110 0
-111 34 0
112 -740 -109 0
-112 740 0
-112 109 0
113 -730 -2 0
-113 730 0
-113 2 0
114 -113 -741 0
-114 113 0
-114 741 0
115 -742 -112 0
-115 742 0
-115 112 0
116 -27 -26 0
-116 27 0
-116 26 0
117 -116 -720 0
-117 116 0
-117 720 0
118 -743 -115 0
-118 743 0
-118 115 0
119 -744 -26 0
-119 744 0
-119 26 0
120 -119 -720 0
-120 119 0
-120 720 0
121 -745 -118 0
-121 745 0
-121 118 0
122 -27 -5 0
-122 27 0
-122 5 0
123 -122 -698 0
-123 122 0
-123 698 0
124 -746 -121 0
-124 746 0
-124 121 0
125 -32 -15 0
-125 32 0
-125 15 0
126 -125 -37 0
-126 125 0
-126 37 0
127 -747 -124 0
-127 747 0
-127 124 0
128 -35 -748 0
-128 35 0
-128 748 0
129 -128 -749 0
-129 128 0
-129 749 0
130 -750 -127 0
-130 750 0
-130 127 0
131 -24 -21 0
-131 24 0
-131 21 0
132 -131 -39 0
-132 131 0
-132 39 0
133 -751 -130 0
-133 751 0
-133 130 0
134 -709 -705 0
-134 709 0
-134 705 0
135 -134 -33 0
-135 134 0
-135 33 0
136 -752 -133 0
-136 752 0
-136 133 0
137 -753 -9 0
-137 753 0
-137 9 0
138 -137 -40 0
-138 137 0
-138 40 0
139 -754 -136 0
-139 754 0
-139 136 0
140 -7 -755 0
-140 7 0
-140 755 0
141 -140 -11 0
-141 140 0
-141 11 0
142 -756 -139 0
-142 756 0
-142 139 0
143 -757 -758 0
-143 757 0
-143 758 0
144 -143 -42 0
-144 143 0
-144 42 0
145 -759 -142 0
-145 759 0
-145 142 0
146 -726 -730 0
-146 726 0
-146 730 0
147 -146 -10 0
-147 146 0
-147 10 0
148 -760 -145 0
-148 760 0
-148 145 0
149 -753 -5 0
-149 753 0
-149 5 0
150 -149 -43 0
-150 149 0
-150 43 0
151 -761 -148 0
-151 761 0
-151 148 0
152 -706 -698 0
-152 706 0
-152 698 0
153 -152 -37 0
-153 152 0
-153 37 0
154 -762 -151 0
-154 762 0
-154 151 0
155 -28 -20 0
-155 28 0
-155 20 0
156 -155 -18 0
-156 155 0
-156 18 0
157 -763 -154 0
-157 763 0
-157 154 0
158 -718 -21 0
-158 718 0
-158 21 0
159 -158 -764 0
-159 158 0
-159 764 0
160 -765 -157 0
-160 765 0
-160 157 0
161 -698 -4 0
-161 698 0
-161 4 0
162 -161 -43 0
-162 161 0
-162 43 0
163 -766 -160 0
-163 766 0
-163 160 0
164 -767 -768 0
-164 767 0
-164 768 0
165 -164 -34 0
-165 164 0
-165 34 0
166 -769 -163 0
-166 769 0
-166 163 0
167 -39 -34 0
-167 39 0
-167 34 0
168 -167 -19 0
-168 167 0
-168 19 0
169 -770 -166 0
-169 770 0
-169 166 0
170 -34 -7 0
-170 34 0
-170 7 0
171 -170 -19 0
-171 170 0
-171 19 0
172 -771 -169 0
-172 771 0
-172 169 0
173 -46 -31 0
-173 46 0
-173 31 0
174 -173 -716 0
-174 173 0
-174 716 0
175 -772 -172 0
-175 772 0
-175 172 0
176 -773 -7 0
-176 773 0
-176 7 0
177 -176 -774 0
-177 176 0
-177 774 0
178 -775 -175 0
-178 775 0
-178 175 0
179 -718 -697 0
-179 718 0
-179 697 0
180 -179 -776 0
-180 179 0
-180 776 0
181 -777 -178 0
-181 777 0
-181 178 0
182 -27 -20 0
-182 27 0
-182 20 0
183 -182 -32 0
-183 182 0
-183 32 0
184 -778 -181 0
-184 778 0
-184 181 0
185 -15 -705 0
-185 15 0
-185 705 0
186 -185 -779 0
-186 185 0
-186 779 0
187 -780 -184 0
-187 780 0
-187 184 0
188 -14 -9 0
-188 14 0
-188 9 0
189 -188 -764 0
-189 188 0
-189 764 0
190 -781 -187 0
-190 781 0
-190 187 0
191 -42 -782 0
-191 42 0
-191 782 0
192 -191 -774 0
-192 191 0
-192 774 0
193 -783 -190 0
-193 783 0
-193 190 0
194 -753 -782 0
-194 753 0
-194 782 0
195 -194 -776 0
-195 194 0
-195 776 0
196 -784 -193 0
-196 784 0
-196 193 0
197 -47 -37 0
-197 47 0
-197 37 0
198 -197 -785 0
-198 197 0
-198 785 0
199 -786 -196 0
-199 786 0
-199 196 0
200 -16 -709 0
-200 16 0
-200 709 0
201 -200 -776 0
-201 200 0
-201 776 0
202 -787 -199 0
-202 787 0
-202 199 0
203 -773 -708 0
-203 773 0
-203 708 0
204 -203 -788 0
-204 203 0
-204 788 0
205 -789 -202 0
-205 789 0
-205 202 0
206 -773 -790 0
-206 773 0
-206 790 0
207 -206 -39 0
-207 206 0
-207 39 0
208 -791 -205 0
-208 791 0
-208 205 0
209 -792 -739 0
-209 792 0
-209 739 0
210 -209 -35 0
-210 209 0
-210 35 0
211 -793 -208 0
-211 793 0
-211 208 0
212 -21 -2 0
-212 21 0
-212 2 0
213 -212 -764 0
-213 212 0
-213 764 0
214 -794 -211 0
-214 794 0
-214 211 0
215 -768 -5 0
-215 768 0
-215 5 0
216 -215 -724 0
-216 215 0
-216 724 0
217 -795 -214 0
-217 795 0
-217 214 0
218 -34 -755 0
-218 34 0
-218 755 0
219 -218 -39 0
-219 218 0
-219 39 0
220 -796 -217 0
-220 796 0
-220 217 0
221 -47 -782 0
-221 47 0
-221 782 0
222 -221 -773 0
-222 221 0
-222 773 0
223 -797 -220 0
-223 797 0
-223 220 0
224 -757 -744 0
-224 757 0
-224 744 0
225 -224 -798 0
-225 224 0
-225 798 0
226 -799 -223 0
-226 799 0
-226 223 0
227 -179 -798 0
-227 179 0
-227 798 0
228 -800 -226 0
-228 800 0
-228 226 0
229 -801 -703 0
-229 801 0
-229 703 0
230 -229 -18 0
-230 229 0
-230 18 0
231 -802 -228 0
-231 802 0
-231 228 0
232 -24 -8 0
-232 24 0
-232 8 0
233 -232 -39 0
-233 232 0
-233 39 0
234 -803 -231 0
-234 803 0
-234 231 0
235 -47 -41 0
-235 47 0
-235 41 0
236 -235 -35 0
-236 235 0
-236 35 0
237 -804 -234 0
-237 804 0
-237 234 0
238 -779 -34 0
-238 779 0
-238 34 0
239 -238 -749 0
-239 238 0
-239 749 0
240 -805 -237 0
-240 805 0
-240 237 0
241 -748 -12 0
-241 748 0
-241 12 0
242 -241 -28 0
-242 241 0
-242 28 0
243 -806 -240 0
-243 806 0
-243 240 0
244 -788 -6 0
-244 788 0
-244 6 0
245 -244 -798 0
-245 244 0
-245 798 0
246 -807 -243 0
-246 807 0
-246 243 0
247 -792 -37 0
-247 792 0
-247 37 0
248 -247 -808 0
-248 247 0
-248 808 0
249 -809 -246 0
-249 809 0
-249 246 0
250 -792 -749 0
-250 792 0
-250 749 0
251 -250 -25 0
-251 250 0
-251 25 0
252 -810 -249 0
-252 810 0
-252 249 0
253 -718 -17 0
-253 718 0
-253 17 0
254 -253 -46 0
-254 253 0
-254 46 0
255 -811 -252 0
-255 811 0
-255 252 0
256 -736 -812 0
-256 736 0
-256 812 0
257 -256 -808 0
-257 256 0
-257 808 0
258 -813 -255 0
-258 813 0
-258 255 0
259 -709 -4 0
-259 709 0
-259 4 0
260 -259 -38 0
-260 259 0
-260 38 0
261 -814 -258 0
-261 814 0
-261 258 0
262 -24 -16 0
-262 24 0
-262 16 0
263 -262 -749 0
-263 262 0
-263 749 0
264 -815 -261 0
-264 815 0
-264 261 0
265 -48 -773 0
-265 48 0
-265 773 0
266 -265 -764 0
-266 265 0
-266 764 0
267 -816 -264 0
-267 816 0
-267 264 0
268 -739 -716 0
-268 739 0
-268 716 0
269 -268 -18 0
-269 268 0
-269 18 0
270 -817 -267 0
-270 817 0
-270 267 0
271 -774 -716 0
-271 774 0
-271 716 0
272 -271 -724 0
-272 271 0
-272 724 0
273 -818 -270 0
-273 818 0
-273 270 0
274 -712 -12 0
-274 712 0
-274 12 0
275 -274 -18 0
-275 274 0
-275 18 0
276 -819 -273 0
-276 819 0
-276 273 0
277 -773 -768 0
-277 773 0
-277 768 0
278 -277 -10 0
-278 277 0
-278 10 0
279 -820 -276 0
-279 820 0
-279 276 0
280 -10 -701 0
-280 10 0
-280 701 0
281 -280 -29 0
-281 280 0
-281 29 0
282 -821 -279 0
-282 821 0
-282 279 0
283 -42 -739 0
-283 42 0
-283 739 0
284 -283 -33 0
-284 283 0
-284 33 0
285 -822 -282 0
-285 822 0
-285 282 0
286 -792 -31 0
-286 792 0
-286 31 0
287 -286 -29 0
-287 286 0
-287 29 0
288 -823 -285 0
-288 823 0
-288 285 0
289 -739 -14 0
-289 739 0
-289 14 0
290 -289 -773 0
-290 289 0
-290 773 0
291 -824 -288 0
-291 824 0
-291 288 0
292 -33 -776 0
-292 33 0
-292 776 0
293 -292 -808 0
-293 292 0
-293 808 0
294 -825 -291 0
-294 825 0
-294 291 0
295 -812 -726 0
-295 812 0
-295 726 0
296 -295 -44 0
-296 295 0
-296 44 0
297 -826 -294 0
-297 826 0
-297 294 0
298 -27 -12 0
-298 27 0
-298 12 0
299 -298 -44 0
-299 298 0
-299 44 0
300 -827 -297 0
-300 827 0
-300 297 0
301 -41 -736 0
-301 41 0
-301 736 0
302 -301 -22 0
-302 301 0
-302 22 0
303 -828 -300 0
-303 828 0
-303 300 0
304 -47 -739 0
-304 47 0
-304 739 0
305 -304 -31 0
-305 304 0
-305 31 0
306 -829 -303 0
-306 829 0
-306 303 0
307 -286 -13 0
-307 286 0
-307 13 0
308 -830 -306 0
-308 830 0
-308 306 0
309 -48 -734 0
-309 48 0
-309 734 0
310 -309 -831 0
-310 309 0
-310 831 0
311 -832 -308 0
-311 832 0
-311 308 0
312 -749 -12 0
-312 749 0
-312 12 0
313 -312 -43 0
-313 312 0
-313 43 0
314 -833 -311 0
-314 833 0
-314 311 0
315 -729 -9 0
-315 729 0
-315 9 0
316 -315 -31 0
-316 315 0
-316 31 0
317 -834 -314 0
-317 834 0
-317 314 0
318 -26 -17 0
-318 26 0
-318 17 0
319 -318 -6 0
-319 318 0
-319 6 0
320 -835 -317 0
-320 835 0
-320 317 0
321 -15 -703 0
-321 15 0
-321 703 0
322 -321 -40 0
-322 321 0
-322 40 0
323 -836 -320 0
-323 836 0
-323 320 0
324 -703 -2 0
-324 703 0
-324 2 0
325 -324 -22 0
-325 324 0
-325 22 0
326 -837 -323 0
-326 837 0
-326 323 0
327 -779 -726 0
-327 779 0
-327 726 0
328 -327 -25 0
-328 327 0
-328 25 0
329 -838 -326 0
-329 838 0
-329 326 0
330 -47 -734 0
-330 47 0
-330 734 0
331 -330 -726 0
-331 330 0
-331 726 0
332 -839 -329 0
-332 839 0
-332 329 0
333 -41 -38 0
-333 41 0
-333 38 0
334 -333 -19 0
-334 333 0
-334 19 0
335 -840 -332 0
-335 840 0
-335 332 0
336 -50 -10 0
-336 50 0
-336 10 0
337 -336 -38 0
-337 336 0
-337 38 0
338 -841 -335 0
-338 841 0
-338 335 0
339 -34 -6 0
-339 34 0
-339 6 0
340 -339 -33 0
-340 339 0
-340 33 0
341 -842 -338 0
-341 842 0
-341 338 0
342 -843 -792 0
-342 843 0
-342 792 0
343 -342 -758 0
-343 342 0
-343 758 0
344 -844 -341 0
-344 844 0
-344 341 0
345 -41 -15 0
-345 41 0
-345 15 0
346 -345 -44 0
-346 345 0
-346 44 0
347 -845 -344 0
-347 845 0
-347 344 0
348 -736 -705 0
-348 736 0
-348 705 0
349 -348 -716 0
-349 348 0
-349 716 0
350 -846 -347 0
-350 846 0
-350 347 0
351 -722 -1 0
-351 722 0
-351 1 0
352 -351 -716 0
-352 351 0
-352 716 0
353 -847 -350 0
-353 847 0
-353 350 0
354 -48 -9 0
-354 48 0
-354 9 0
355 -354 -848 0
-355 354 0
-355 848 0
356 -849 -353 0
-356 849 0
-356 353 0
357 -35 -10 0
-357 35 0
-357 10 0
358 -357 -37 0
-358 357 0
-358 37 0
359 -850 -356 0
-359 850 0
-359 356 0
360 -7 -2 0
-360 7 0
-360 2 0
361 -360 -720 0
-361 360 0
-361 720 0
362 -851 -359 0
-362 851 0
-362 359 0
363 -28 -758 0
-363 28 0
-363 758 0
364 -363 -801 0
-364 363 0
-364 801 0
365 -852 -362 0
-365 852 0
-365 362 0
366 -35 -768 0
-366 35 0
-366 768 0
367 -366 -701 0
-367 366 0
-367 701 0
368 -853 -365 0
-368 853 0
-368 365 0
369 -50 -709 0
-369 50 0
-369 709 0
370 -369 -764 0
-370 369 0
-370 764 0
371 -854 -368 0
-371 854 0
-371 368 0
372 -843 -698 0
-372 843 0
-372 698 0
373 -372 -716 0
-373 372 0
-373 716 0
374 -855 -371 0
-374 855 0
-374 371 0
375 -843 -16 0
-375 843 0
-375 16 0
376 -375 -706 0
-376 375 0
-376 706 0
377 -856 -374 0
-377 856 0
-377 374 0
378 -37 -33 0
-378 37 0
-378 33 0
379 -378 -23 0
-379 378 0
-379 23 0
380 -857 -377 0
-380 857 0
-380 377 0
381 -739 -790 0
-381 739 0
-381 790 0
382 -381 -726 0
-382 381 0
-382 726 0
383 -858 -380 0
-383 858 0
-383 380 0
384 -42 -3 0
-384 42 0
-384 3 0
385 -384 -753 0
-385 384 0
-385 753 0
386 -859 -383 0
-386 859 0
-386 383 0
387 -45 -782 0
-387 45 0
-387 782 0
388 -387 -3 0
-388 387 0
-388 3 0
389 -860 -386 0
-389 860 0
-389 386 0
390 -831 -708 0
-390 831 0
-390 708 0
391 -390 -749 0
-391 390 0
-391 749 0
392 -861 -389 0
-392 861 0
-392 389 0
393 -774 -703 0
-393 774 0
-393 703 0
394 -393 -49 0
-394 393 0
-394 49 0
395 -862 -392 0
-395 862 0
-395 392 0
396 -729 -718 0
-396 729 0
-396 718 0
397 -396 -5 0
-397 396 0
-397 5 0
398 -863 -395 0
-398 863 0
-398 395 0
399 -30 -28 0
-399 30 0
-399 28 0
400 -399 -4 0
-400 399 0
-400 4 0
401 -864 -398 0
-401 864 0
-401 398 0
402 -698 -755 0
-402 698 0
-402 755 0
403 -402 -749 0
-403 402 0
-403 749 0
404 -865 -401 0
-404 865 0
-404 401 0
405 -15 -734 0
-405 15 0
-405 734 0
406 -405 -768 0
-406 405 0
-406 768 0
407 -866 -404 0
-407 866 0
-407 404 0
408 -831 -36 0
-408 831 0
-408 36 0
409 -408 -39 0
-409 408 0
-409 39 0
410 -867 -407 0
-410 867 0
-410 407 0
411 -9 -730 0
-411 9 0
-411 730 0
412 -411 -34 0
-412 411 0
-412 34 0
413 -868 -410 0
-413 868 0
-413 410 0
414 -773 -774 0
-414 773 0
-414 774 0
415 -414 -37 0
-415 414 0
-415 37 0
416 -869 -413 0
-416 869 0
-416 413 0
417 -22 -15 0
-417 22 0
-417 15 0
418 -417 -713 0
-418 417 0
-418 713 0
419 -870 -416 0
-419 870 0
-419 416 0
420 -26 -2 0
-420 26 0
-420 2 0
421 -420 -736 0
-421 420 0
-421 736 0
422 -871 -419 0
-422 871 0
-422 419 0
423 -723 -15 0
-423 723 0
-423 15 0
424 -423 -33 0
-424 423 0
-424 33 0
425 -872 -422 0
-425 872 0
-425 422 0
426 -45 -739 0
-426 45 0
-426 739 0
427 -426 -706 0
-427 426 0
-427 706 0
428 -873 -425 0
-428 873 0
-428 425 0
429 -36 -20 0
-429 36 0
-429 20 0
430 -429 -848 0
-430 429 0
-430 848 0
431 -874 -428 0
-431 874 0
-431 428 0
432 -843 -782 0
-432 843 0
-432 782 0
433 -432 -749 0
-433 432 0
-433 749 0
434 -875 -431 0
-434 875 0
-434 431 0
435 -158 -724 0
-435 158 0
-435 724 0
436 -876 -434 0
-436 876 0
-436 434 0
437 -843 -718 0
-437 843 0
-437 718 0
438 -437 -39 0
-438 437 0
-438 39 0
439 -877 -436 0
-439 877 0
-439 436 0
440 -716 -755 0
-440 716 0
-440 755 0
441 -440 -720 0
-441 440 0
-441 720 0
442 -878 -439 0
-442 878 0
-442 439 0
443 -92 -37 0
-443 92 0
-443 37 0
444 -879 -442 0
-444 879 0
-444 442 0
445 -739 -708 0
-445 739 0
-445 708 0
446 -445 -753 0
-446 445 0
-446 753 0
447 -880 -444 0
-447 880 0
-447 444 0
448 -718 -3 0
-448 718 0
-448 3 0
449 -448 -6 0
-449 448 0
-449 6 0
450 -881 -447 0
-450 881 0
-450 447 0
451 -736 -774 0
-451 736 0
-451 774 0
452 -451 -19 0
-452 451 0
-452 19 0
453 -882 -450 0
-453 882 0
-453 450 0
454 -741 -730 0
-454 741 0
-454 730 0
455 -454 -749 0
-455 454 0
-455 749 0
456 -883 -453 0
-456 883 0
-456 453 0
457 -49 -10 0
-457 49 0
-457 10 0
458 -457 -29 0
-458 457 0
-458 29 0
459 -884 -456 0
-459 884 0
-459 456 0
460 -23 -748 0
-460 23 0
-460 748 0
461 -460 -785 0
-461 460 0
-461 785 0
462 -885 -459 0
-462 885 0
-462 459 0
463 -744 -2 0
-463 744 0
-463 2 0
464 -463 -29 0
-464 463 0
-464 29 0
465 -886 -462 0
-465 886 0
-465 462 0
466 -28 -22 0
-466 28 0
-466 22 0
467 -466 -785 0
-467 466 0
-467 785 0
468 -887 -465 0
-468 887 0
-468 465 0
469 -739 -712 0
-469 739 0
-469 712 0
470 -469 -31 0
-470 469 0
-470 31 0
471 -888 -468 0
-471 888 0
-471 468 0
472 -34 -27 0
-472 34 0
-472 27 0
473 -472 -13 0
-473 472 0
-473 13 0
474 -889 -471 0
-474 889 0
-474 471 0
475 -34 -8 0
-475 34 0
-475 8 0
476 -475 -44 0
-476 475 0
-476 44 0
477 -890 -474 0
-477 890 0
-477 474 0
478 -792 -773 0
-478 792 0
-478 773 0
479 -478 -758 0
-479 478 0
-479 758 0
480 -891 -477 0
-480 891 0
-480 477 0
481 -36 -776 0
-481 36 0
-481 776 0
482 -481 -13 0
-482 481 0
-482 13 0
483 -892 -480 0
-483 892 0
-483 480 0
484 -736 -708 0
-484 736 0
-484 708 0
485 -484 -716 0
-485 484 0
-485 716 0
486 -893 -483 0
-486 893 0
-486 483 0
487 -48 -26 0
-487 48 0
-487 26 0
488 -487 -798 0
-488 487 0
-488 798 0
489 -894 -486 0
-489 894 0
-489 486 0
490 -774 -706 0
-490 774 0
-490 706 0
491 -490 -43 0
-491 490 0
-491 43 0
492 -895 -489 0
-492 895 0
-492 489 0
493 -20 -12 0
-493 20 0
-493 12 0
494 -493 -35 0
-494 493 0
-494 35 0
495 -896 -492 0
-495 896 0
-495 492 0
496 -749 -34 0
-496 749 0
-496 34 0
497 -496 -18 0
-497 496 0
-497 18 0
498 -897 -495 0
-498 897 0
-498 495 0
499 -46 -749 0
-499 46 0
-499 749 0
500 -499 -18 0
-500 499 0
-500 18 0
501 -898 -498 0
-501 898 0
-501 498 0
502 -20 -706 0
-502 20 0
-502 706 0
503 -502 -18 0
-503 502 0
-503 18 0
504 -899 -501 0
-504 899 0
-504 501 0
505 -34 -748 0
-505 34 0
-505 748 0
506 -505 -6 0
-506 505 0
-506 6 0
507 -900 -504 0
-507 900 0
-507 504 0
508 -767 -708 0
-508 767 0
-508 708 0
509 -508 -764 0
-509 508 0
-509 764 0
510 -901 -507 0
-510 901 0
-510 507 0
511 -723 -24 0
-511 723 0
-511 24 0
512 -511 -27 0
-512 511 0
-512 27 0
513 -902 -510 0
-513 902 0
-513 510 0
514 -24 -782 0
-514 24 0
-514 782 0
515 -514 -790 0
-515 514 0
-515 790 0
516 -903 -513 0
-516 903 0
-516 513 0
517 -39 -718 0
-517 39 0
-517 718 0
518 -517 -713 0
-518 517 0
-518 713 0
519 -904 -516 0
-519 904 0
-519 516 0
520 -843 -20 0
-520 843 0
-520 20 0
521 -520 -4 0
-521 520 0
-521 4 0
522 -905 -519 0
-522 905 0
-522 519 0
523 -35 -12 0
-523 35 0
-523 12 0
524 -523 -33 0
-524 523 0
-524 33 0
525 -906 -522 0
-525 906 0
-525 522 0
526 -720 -713 0
-526 720 0
-526 713 0
527 -526 -13 0
-527 526 0
-527 13 0
528 -907 -525 0
-528 907 0
-528 525 0
529 -764 -757 0
-529 764 0
-529 757 0
530 -529 -753 0
-530 529 0
-530 753 0
531 -908 -528 0
-531 908 0
-531 528 0
532 -739 -26 0
-532 739 0
-532 26 0
533 -532 -755 0
-533 532 0
-533 755 0
534 -909 -531 0
-534 909 0
-534 531 0
535 -20 -712 0
-535 20 0
-535 712 0
536 -535 -808 0
-536 535 0
-536 808 0
537 -910 -534 0
-537 910 0
-537 534 0
538 -768 -705 0
-538 768 0
-538 705 0
539 -538 -736 0
-539 538 0
-539 736 0
540 -911 -537 0
-540 911 0
-540 537 0
541 -739 -27 0
-541 739 0
-541 27 0
542 -541 -48 0
-542 541 0
-542 48 0
543 -912 -540 0
-543 912 0
-543 540 0
544 -8 -3 0
-544 8 0
-544 3 0
545 -544 -44 0
-545 544 0
-545 44 0
546 -913 -543 0
-546 913 0
-546 543 0
547 -716 -7 0
-547 716 0
-547 7 0
548 -547 -798 0
-548 547 0
-548 798 0
549 -914 -546 0
-549 914 0
-549 546 0
550 -41 -790 0
-550 41 0
-550 790 0
551 -550 -16 0
-551 550 0
-551 16 0
552 -915 -549 0
-552 915 0
-552 549 0
553 -709 -10 0
-553 709 0
-553 10 0
554 -553 -713 0
-554 553 0
-554 713 0
555 -916 -552 0
-555 916 0
-555 552 0
556 -47 -24 0
-556 47 0
-556 24 0
557 -556 -42 0
-557 556 0
-557 42 0
558 -917 -555 0
-558 917 0
-558 555 0
559 -48 -1 0
-559 48 0
-559 1 0
560 -559 -767 0
-560 559 0
-560 767 0
561 -918 -558 0
-561 918 0
-561 558 0
562 -712 -10 0
-562 712 0
-562 10 0
563 -562 -42 0
-563 562 0
-563 42 0
564 -919 -561 0
-564 919 0
-564 561 0
565 -782 -755 0
-565 782 0
-565 755 0
566 -565 -843 0
-566 565 0
-566 843 0
567 -920 -564 0
-567 920 0
-567 564 0
568 -10 -755 0
-568 10 0
-568 755 0
569 -568 -19 0
-569 568 0
-569 19 0
570 -921 -567 0
-570 921 0
-570 567 0
571 -47 -779 0
-571 47 0
-571 779 0
572 -571 -29 0
-572 571 0
-572 29 0
573 -922 -570 0
-573 922 0
-573 570 0
574 -42 -2 0
-574 42 0
-574 2 0
575 -574 -44 0
-575 574 0
-575 44 0
576 -923 -573 0
-576 923 0
-576 573 0
577 -30 -709 0
-577 30 0
-577 709 0
578 -577 -758 0
-578 577 0
-578 758 0
579 -924 -576 0
-579 924 0
-579 576 0
580 -798 -779 0
-580 798 0
-580 779 0
581 -580 -801 0
-581 580 0
-581 801 0
582 -925 -579 0
-582 925 0
-582 579 0
583 -49 -45 0
-583 49 0
-583 45 0
584 -583 -13 0
-584 583 0
-584 13 0
585 -926 -582 0
-585 926 0
-585 582 0
586 -767 -779 0
-586 767 0
-586 779 0
587 -586 -776 0
-587 586 0
-587 776 0
588 -927 -585 0
-588 927 0
-588 585 0
589 -779 -33 0
-589 779 0
-589 33 0
590 -589 -753 0
-590 589 0
-590 753 0
591 -928 -588 0
-591 928 0
-591 588 0
592 -41 -722 0
-592 41 0
-592 722 0
593 -592 -726 0
-593 592 0
-593 726 0
594 -929 -591 0
-594 929 0
-594 591 0
595 -831 -718 0
-595 831 0
-595 718 0
596 -595 -49 0
-596 595 0
-596 49 0
597 -930 -594 0
-597 930 0
-597 594 0
598 -831 -812 0
-598 831 0
-598 812 0
599 -598 -40 0
-599 598 0
-599 40 0
600 -931 -597 0
-600 931 0
-600 597 0
601 -50 -748 0
-601 50 0
-601 748 0
602 -601 -6 0
-602 601 0
-602 6 0
603 -932 -600 0
-603 932 0
-603 600 0
604 -773 -718 0
-604 773 0
-604 718 0
605 -604 -32 0
-605 604 0
-605 32 0
606 -933 -603 0
-606 933 0
-606 603 0
607 -50 -16 0
-607 50 0
-607 16 0
608 -607 -44 0
-608 607 0
-608 44 0
609 -934 -606 0
-609 934 0
-609 606 0
610 -42 -744 0
-610 42 0
-610 744 0
611 -610 -37 0
-611 610 0
-611 37 0
612 -935 -609 0
-612 935 0
-612 609 0
613 -110 -8 0
-613 110 0
-613 8 0
614 -936 -612 0
-614 936 0
-614 612 0
615 -697 -755 0
-615 697 0
-615 755 0
616 -615 -753 0
-616 615 0
-616 753 0
617 -937 -614 0
-617 937 0
-617 614 0
618 -768 -15 0
-618 768 0
-618 15 0
619 -618 -18 0
-619 618 0
-619 18 0
620 -938 -617 0
-620 938 0
-620 617 0
621 -706 -734 0
-621 706 0
-621 734 0
622 -621 -25 0
-622 621 0
-622 25 0
623 -939 -620 0
-623 939 0
-623 620 0
624 -792 -32 0
-624 792 0
-624 32 0
625 -624 -764 0
-625 624 0
-625 764 0
626 -940 -623 0
-626 940 0
-626 623 0
627 -788 -726 0
-627 788 0
-627 726 0
628 -627 -698 0
-628 627 0
-628 698 0
629 -941 -626 0
-629 941 0
-629 626 0
630 -42 -28 0
-630 42 0
-630 28 0
631 -630 -49 0
-631 630 0
-631 49 0
632 -942 -629 0
-632 942 0
-632 629 0
633 -48 -764 0
-633 48 0
-633 764 0
634 -633 -808 0
-634 633 0
-634 808 0
635 -943 -632 0
-635 943 0
-635 632 0
636 -768 -698 0
-636 768 0
-636 698 0
637 -636 -11 0
-637 636 0
-637 11 0
638 -944 -635 0
-638 944 0
-638 635 0
639 -24 -4 0
-639 24 0
-639 4 0
640 -639 -701 0
-640 639 0
-640 701 0
641 -945 -638 0
-641 945 0
-641 638 0
642 -45 -709 0
-642 45 0
-642 709 0
643 -642 -843 0
-643 642 0
-643 843 0
644 -946 -641 0
-644 946 0
-644 641 0
645 -41 -1 0
-645 41 0
-645 1 0
646 -645 -18 0
-646 645 0
-646 18 0
647 -947 -644 0
-647 947 0
-647 644 0
648 -31 -3 0
-648 31 0
-648 3 0
649 -648 -22 0
-649 648 0
-649 22 0
650 -948 -647 0
-650 948 0
-650 647 0
651 -27 -758 0
-651 27 0
-651 758 0
652 -651 -698 0
-652 651 0
-652 698 0
653 -949 -650 0
-653 949 0
-653 650 0
654 -782 -758 0
-654 782 0
-654 758 0
655 -654 -698 0
-655 654 0
-655 698 0
656 -950 -653 0
-656 950 0
-656 653 0
657 -46 -734 0
-657 46 0
-657 734 0
658 -657 -4 0
-658 657 0
-658 4 0
659 -951 -656 0
-659 951 0
-659 656 0
660 -755 -734 0
-660 755 0
-660 734 0
661 -660 -779 0
-661 660 0
-661 779 0
662 -952 -659 0
-662 952 0
-662 659 0
663 -798 -741 0
-663 798 0
-663 741 0
664 -663 -11 0
-664 663 0
-664 11 0
665 -953 -662 0
-665 953 0
-665 662 0
666 -28 -718 0
-666 28 0
-666 718 0
667 -666 -713 0
-667 666 0
-667 713 0
668 -954 -665 0
-668 954 0
-668 665 0
669 -28 -705 0
-669 28 0
-669 705 0
670 -669 -774 0
-670 669 0
-670 774 0
671 -955 -668 0
-671 955 0
-671 668 0
672 -741 -21 0
-672 741 0
-672 21 0
673 -672 -13 0
-673 672 0
-673 13 0
674 -956 -671 0
-674 956 0
-674 671 0
675 -445 -21 0
-675 445 0
-675 21 0
676 -957 -674 0
-676 957 0
-676 674 0
677 -47 -30 0
-677 47 0
-677 30 0
678 -677 -708 0
-678 677 0
-678 708 0
679 -958 -676 0
-679 958 0
-679 676 0
680 -843 -790 0
-680 843 0
-680 790 0
681 -680 -8 0
-681 680 0
-681 8 0
682 -959 -679 0
-682 959 0
-682 679 0
683 -779 -12 0
-683 779 0
-683 12 0
684 -683 -753 0
-684 683 0
-684 753 0
685 -960 -682 0
-685 960 0
-685 682 0
686 -37 -7 0
-686 37 0
-686 7 0
687 -686 -724 0
-687 686 0
-687 724 0
688 -961 -685 0
-688 961 0
-688 685 0
689 -748 -3 0
-689 748 0
-689 3 0
690 -689 -33 0
-690 689 0
-690 33 0
691 -962 -688 0
-691 962 0
-691 688 0
692 -592 -708 0
-692 592 0
-692 708 0
693 -963 -691 0
-693 963 0
-693 691 0
694 -722 -768 0
-694 722 0
-694 768 0
695 -694 -848 0
-695 694 0
-695 848 0
696 -964 -693 0
-696 964 0
-696 693 0
-697 -3 0
697 3 0
-698 -6 0
698 6 0
-699 -54 0
699 54 0
-700 -52 0
700 52 0
-701 -8 0
701 8 0
-702 -57 0
702 57 0
-703 -9 0
703 9 0
-704 -60 0
704 60 0
-705 -12 0
705 12 0
-706 -10 0
706 10 0
-707 -63 0
707 63 0
-708 -15 0
708 15 0
-709 -14 0
709 14 0
-710 -66 0
710 66 0
-711 -18 0
711 18 0
-712 -17 0
712 17 0
-713 -19 0
713 19 0
-714 -69 0
714 69 0
-715 -72 0
715 72 0
-716 -23 0
716 23 0
-717 -75 0
717 75 0
-718 -24 0
718 24 0
-719 -78 0
719 78 0
-720 -25 0
720 25 0
-721 -81 0
721 81 0
-722 -27 0
722 27 0
-723 -26 0
723 26 0
-724 -13 0
724 13 0
-725 -84 0
725 84 0
-726 -28 0
726 28 0
-727 -87 0
727 87 0
-728 -90 0
728 90 0
-729 -30 0
729 30 0
-730 -4 0
730 4 0
-731 -93 0
731 93 0
-732 -96 0
732 96 0
-733 -99 0
733 99 0
-734 -1 0
734 1 0
-735 -102 0
735 102 0
-736 -34 0
736 34 0
-737 -105 0
737 105 0
-738 -108 0
738 108 0
-739 -36 0
739 36 0
-740 -111 0
740 111 0
-741 -37 0
741 37 0
-742 -114 0
742 114 0
-743 -117 0
743 117 0
-744 -35 0
744 35 0
-745 -120 0
745 120 0
-746 -123 0
746 123 0
-747 -126 0
747 126 0
-748 -20 0
748 20 0
-749 -38 0
749 38 0
-750 -129 0
750 129 0
-751 -132 0
751 132 0
-752 -135 0
752 135 0
-753 -29 0
753 29 0
-754 -138 0
754 138 0
-755 -2 0
755 2 0
-756 -141 0
756 141 0
-757 -41 0
757 41 0
-758 -5 0
758 5 0
-759 -144 0
759 144 0
-760 -147 0
760 147 0
-761 -150 0
761 150 0
-762 -153 0
762 153 0
-763 -156 0
763 156 0
-764 -44 0
764 44 0
-765 -159 0
765 159 0
-766 -162 0
766 162 0
-767 -45 0
767 45 0
-768 -16 0
768 16 0
-769 -165 0
769 165 0
-770 -168 0
770 168 0
-771 -171 0
771 171 0
-772 -174 0
772 174 0
-773 -46 0
773 46 0
-774 -33 0
774 33 0
-775 -177 0
775 177 0
-776 -11 0
776 11 0
-777 -180 0
777 180 0
-778 -183 0
778 183 0
-779 -42 0
779 42 0
-780 -186 0
780 186 0
-781 -189 0
781 189 0
-782 -7 0
782 7 0
-783 -192 0
783 192 0
-784 -195 0
784 195 0
-785 -43 0
785 43 0
-786 -198 0
786 198 0
-787 -201 0
787 201 0
-788 -31 0
788 31 0
-789 -204 0
789 204 0
-790 -21 0
790 21 0
-791 -207 0
791 207 0
-792 -48 0
792 48 0
-793 -210 0
793 210 0
-794 -213 0
794 213 0
-795 -216 0
795 216 0
-796 -219 0
796 219 0
-797 -222 0
797 222 0
-798 -49 0
798 49 0
-799 -225 0
799 225 0
-800 -227 0
800 227 0
-801 -39 0
801 39 0
-802 -230 0
802 230 0
-803 -233 0
803 233 0
-804 -236 0
804 236 0
-805 -239 0
805 239 0
-806 -242 0
806 242 0
-807 -245 0
807 245 0
-808 -40 0
808 40 0
-809 -248 0
809 248 0
-810 -251 0
810 251 0
-811 -254 0
811 254 0
-812 -32 0
812 32 0
-813 -257 0
813 257 0
-814 -260 0
814 260 0
-815 -263 0
815 263 0
-816 -266 0
816 266 0
-817 -269 0
817 269 0
-818 -272 0
818 272 0
-819 -275 0
819 275 0
-820 -278 0
820 278 0
-821 -281 0
821 281 0
-822 -284 0
822 284 0
-823 -287 0
823 287 0
-824 -290 0
824 290 0
-825 -293 0
825 293 0
-826 -296 0
826 296 0
-827 -299 0
827 299 0
-828 -302 0
828 302 0
-829 -305 0
829 305 0
-830 -307 0
830 307 0
-831 -47 0
831 47 0
-832 -310 0
832 310 0
-833 -313 0
833 313 0
-834 -316 0
834 316 0
-835 -319 0
835 319 0
-836 -322 0
836 322 0
-837 -325 0
837 325 0
-838 -328 0
838 328 0
-839 -331 0
839 331 0
-840 -334 0
840 334 0
-841 -337 0
841 337 0
-842 -340 0
842 340 0
-843 -50 0
843 50 0
-844 -343 0
844 343 0
-845 -346 0
845 346 0
-846 -349 0
846 349 0
-847 -352 0
847 352 0
-848 -22 0
848 22 0
-849 -355 0
849 355 0
-850 -358 0
850 358 0
-851 -361 0
851 361 0
-852 -364 0
852 364 0
-853 -367 0
853 367 0
-854 -370 0
854 370 0
-855 -373 0
855 373 0
-856 -376 0
856 376 0
-857 -379 0
857 379 0
-858 -382 0
858 382 0
-859 -385 0
859 385 0
-860 -388 0
860 388 0
-861 -391 0
861 391 0
-862 -394 0
862 394 0
-863 -397 0
863 397 0
-864 -400 0
864 400 0
-865 -403 0
865 403 0
-866 -406 0
866 406 0
-867 -409 0
867 409 0
-868 -412 0
868 412 0
-869 -415 0
869 415 0
-870 -418 0
870 418 0
-871 -421 0
871 421 0
-872 -424 0
872 424 0
-873 -427 0
873 427 0
-874 -430 0
874 430 0
-875 -433 0
875 433 0
-876 -435 0
876 435 0
-877 -438 0
877 438 0
-878 -441 0
878 441 0
-879 -443 0
879 443 0
-880 -446 0
880 446 0
-881 -449 0
881 449 0
-882 -452 0
882 452 0
-883 -455 0
883 455 0
-884 -458 0
884 458 0
-885 -461 0
885 461 0
-886 -464 0
886 464 0
-887 -467 0
887 467 0
-888 -470 0
888 470 0
-889 -473 0
889 473 0
-890 -476 0
890 476 0
-891 -479 0
891 479 0
-892 -482 0
892 482 0
-893 -485 0
893 485 0
-894 -488 0
894 488 0
-895 -491 0
895 491 0
-896 -494 0
896 494 0
-897 -497 0
897 497 0
-898 -500 0
898 500 0
-899 -503 0
899 503 0
-900 -506 0
900 506 0
-901 -509 0
901 509 0
-902 -512 0
902 512 0
-903 -515 0
903 515 0
-904 -518 0
904 518 0
-905 -521 0
905 521 0
-906 -524 0
906 524 0
-907 -527 0
907 527 0
-908 -530 0
908 530 0
-909 -533 0
909 533 0
-910 -536 0
910 536 0
-911 -539 0
911 539 0
-912 -542 0
912 542 0
-913 -545 0
913 545 0
-914 -548 0
914 548 0
-915 -551 0
915 551 0
-916 -554 0
916 554 0
-917 -557 0
917 557 0
-918 -560 0
918 560 0
-919 -563 0
919 563 0
-920 -566 0
920 566 0
-921 -569 0
921 569 0
-922 -572 0
922 572 0
-923 -575 0
923 575 0
-924 -578 0
924 578 0
-925 -581 0
925 581 0
-926 -584 0
926 584 0
-927 -587 0
927 587 0
-928 -590 0
928 590 0
-929 -593 0
929 593 0
-930 -596 0
930 596 0
-931 -599 0
931 599 0
-932 -602 0
932 602 0
-933 -605 0
933 605 0
-934 -608 0
934 608 0
-935 -611 0
935 611 0
-936 -613 0
936 613 0
-937 -616 0
937 616 0
-938 -619 0
938 619 0
-939 -622 0
939 622 0
-940 -625 0
940 625 0
-941 -628 0
941 628 0
-942 -631 0
942 631 0
-943 -634 0
943 634 0
-944 -637 0
944 637 0
-945 -640 0
945 640 0
-946 -643 0
946 643 0
-947 -646 0
947 646 0
-948 -649 0
948 649 0
-949 -652 0
949 652 0
-950 -655 0
950 655 0
-951 -658 0
951 658 0
-952 -661 0
952 661 0
-953 -664 0
953 664 0
-954 -667 0
954 667 0
-955 -670 0
955 670 0
-956 -673 0
956 673 0
-957 -675 0
957 675 0
-958 -678 0
958 678 0
-959 -681 0
959 681 0
-960 -684 0
960 684 0
-961 -687 0
961 687 0
-962 -690 0
962 690 0
-963 -692 0
963 692 0
-964 -695 0
964 695 0
696 0
